0 52438 
1 52264 
2 52156 
3 51580 
4 51508 
5 50450 
6 49560 
7 48784 
8 47056 
9 46076 
10 45140 
11 45022 
12 44690 
13 44510 
14 44354 
15 42426 
16 41212 
17 40588 
18 40498 
19 40438 
20 40302 
21 39982 
22 39670 
23 39542 
24 39288 
25 39172 
26 38494 
27 37166 
28 36510 
29 35798 
30 34238 
31 34146 
32 33670 
33 33476 
34 33184 
35 32992 
36 32976 
37 32976 

